% instance size is  20
nitems= 20 ;
capacity= 5505 ;
gain= [690, 138, 1104, 966, 232, 928, 116, 1160, 232, 138, 1380, 1044, 696, 696, 232, 1044, 414, 1104, 464, 464] ;
weight= [590, 118, 944, 826, 192, 768, 96, 960, 192, 118, 1180, 864, 576, 576, 192, 864, 354, 944, 384, 384] ;
